SAT
92 73 -122 30 -121 -60 102 19 58 24 -21 2 -63 -40 -55 75 96 -67 -101 -13 62 -109 -47 -76 52 31 53 86 111 -98 116 -114 119 -74 46 97 33 -32 105 38 95 49 -18 44 42 -50 -78 118 -117 12 112 82 54 -91 -110 25 -36 -7 -81 43 -71 5 34 90 -64 -4 -65 -51 3 57 124 41 -94 -16 -61 -125 -26 79 -35 108 -23 -11 39 -27 66 -37 84 87 -28 6 45 9 113 56 -106 123 -85 69 1 15 88 -93 -107 22 17 80 -14 -68 -99 10 -115 -77 48 8 104 -120 -103 -59 -29 100 -89 -20 -70 72 83 0
